001 001 001 001 001 001 001 001 002 004 005 004 004 004 003 004 002 003 003 004 004 003 003 003 004 006 009 009 007 008 006
001 001 001 002 001 001 001 001 003 004 003 003 004 005 005 003 005 004 003 003 003 004 004 003 005 004 006 005 006 008 006
001 001 001 001 002 001 002 001 003 003 004 003 003 003 004 004 005 005 006 003 005 005 004 005 002 004 006 006 006 006 007
001 001 001 001 002 001 002 002 003 003 002 003 003 004 005 004 005 005 006 004 003 005 004 006 005 005 005 004 006 006 006
001 001 001 001 001 002 002 002 002 004 003 002 003 003 004 005 003 004 005 006 004 006 004 006 007 004 004 005 004 006 006
001 001 001 001 001 002 003 003 004 004 003 003 003 002 003 006 004 003 005 006 004 004 003 003 009 006 004 005 004 005 005
001 000 001 001 002 003 003 002 003 003 003 003 002 002 003 003 005 002 005 005 002 003 003 002 006 004 004 004 004 003 005
000 001 001 001 001 003 003 003 002 004 002 003 002 003 003 003 004 003 004 004 003 002 002 002 004 003 003 004 003 003 005
001 000 001 001 001 003 004 004 002 004 004 002 003 001 003 003 003 003 003 002 003 002 002 002 003 003 002 003 002 003 004
001 001 001 001 002 002 004 004 003 003 003 002 003 001 002 003 003 003 003 003 003 003 002 003 003 002 002 004 002 003 004
001 000 000 001 002 003 004 003 002 002 002 002 001 002 002 003 005 007 006 006 003 003 002 004 003 002 003 004 002 004 004
000 000 000 001 001 002 003 001 002 002 001 004 001 002 003 003 006 005 004 003 002 003 002 002 002 002 002 003 002 003 004
000 001 001 001 001 001 002 002 003 002 001 002 001 002 002 003 005 005 004 006 008 006 004 001 002 002 003 003 004 003 003
000 000 000 001 001 001 002 001 001 002 002 001 001 002 003 004 003 004 003 004 006 006 003 002 003 002 002 002 003 003 002
000 000 000 001 001 001 001 001 001 002 001 002 001 001 002 002 002 003 003 006 005 006 003 002 002 002 002 003 002 002 002
000 000 000 001 001 001 001 001 001 001 001 001 001 003 002 002 002 002 003 003 003 006 002 001 002 002 003 004 002 003 002
000 000 001 001 001 001 001 001 001 001 001 001 001 001 002 001 002 001 002 002 002 005 004 002 002 002 002 004 003 002 002
000 000 000 001 001 001 001 001 001 001 000 001 000 001 001 001 001 001 001 001 003 004 003 002 001 003 002 004 005 003 003
000 000 000 000 000 001 001 000 001 000 000 001 000 000 000 000 001 001 001 002 002 004 003 002 003 003 005 004 006 006 004
000 000 000 000 000 001 001 000 000 000 001 000 000 000 000 000 001 001 001 002 002 004 002 003 003 003 004 004 006 007 005
000 000 000 000 000 000 000 000 000 000 000 000 000 000 000 000 001 001 003 002 003 004 002 002 003 003 005 004 005 007 005
000 000 000 000 000 000 000 000 000 000 000 000 000 000 000 000 001 002 004 003 002 002 002 -99 003 003 003 004 005 -99 -99
000 000 000 000 000 000 000 000 000 000 000 000 000 000 000 000 001 002 004 003 003 002 002 -99 003 003 003 004 005 -99 007
000 000 000 000 000 000 000 000 000 000 000 000 000 000 000 000 001 002 002 003 002 002 002 -99 003 -99 -99 -99 -99 006 006
000 000 000 000 000 000 000 000 000 000 000 000 000 000 000 000 000 001 001 002 002 002 004 -99 -99 -99 -99 -99 -99 006 006
000 000 000 000 000 000 000 000 000 000 000 -99 000 000 000 000 000 001 001 001 001 002 005 -99 -99 -99 -99 -99 -99 005 003
000 000 000 000 000 000 000 000 000 000 -99 -99 -99 000 000 000 000 000 001 001 001 001 002 -99 -99 -99 -99 -99 -99 005 005
000 000 000 000 000 000 000 000 000 000 -99 -99 000 000 000 000 000 001 001 000 001 001 001 -99 -99 -99 -99 003 003 004 004
000 000 000 000 000 000 000 000 000 000 -99 -99 000 000 000 000 000 001 001 001 000 000 -99 -99 -99 -99 -99 003 004 004 004
000 000 000 000 000 000 000 000 000 000 000 -99 000 000 000 000 000 000 001 000 000 000 -99 -99 -99 -99 -99 003 003 003 004
000 000 000 000 000 000 000 000 000 000 -99 -99 000 000 000 000 000 000 001 000 000 000 -99 000 -99 -99 -99 003 003 002 003
000 000 000 000 000 000 000 000 000 000 -99 -99 000 000 000 000 000 000 000 000 000 000 000 000 -99 -99 -99 001 001 002 003
000 000 000 000 000 000 000 000 000 -99 -99 -99 000 000 000 000 000 000 000 000 -99 -99 000 000 000 000 -99 000 000 001 003
000 000 000 000 000 000 000 000 000 000 -99 -99 000 000 000 000 000 000 000 000 -99 000 000 000 000 000 000 000 000 001 002
000 000 000 000 000 000 000 000 000 000 -99 000 000 000 000 000 000 000 000 000 000 000 000 000 000 000 000 000 000 000 002
000 000 000 000 000 000 000 000 000 -99 -99 000 000 000 000 000 000 000 000 000 000 000 000 000 000 000 000 000 000 000 002
000 000 -99 000 000 -99 -99 000 000 -99 -99 000 000 000 000 000 000 000 000 000 000 000 000 -99 000 000 000 000 000 000 000
000 -99 000 000 000 -99 -99 000 000 -99 -99 000 000 000 000 000 000 000 001 000 000 000 -99 -99 -99 000 000 000 000 000 000
-99 -99 000 000 000 000 -99 000 -99 -99 -99 000 000 000 000 000 000 001 001 000 000 000 000 000 -99 000 000 000 -99 000 000
000 000 000 000 000 -99 000 000 -99 -99 -99 000 000 000 000 000 000 001 001 000 000 000 000 000 -99 000 000 000 -99 000 -99
000 000 000 000 000 -99 -99 000 -99 -99 000 000 000 000 000 000 000 001 001 000 000 000 000 000 -99 000 000 000 -99 000 000
000 000 -99 -99 -99 -99 -99 -99 -99 -99 000 000 000 000 -99 000 000 000 000 000 000 000 000 000 000 000 -99 -99 000 000 000
-99 -99 -99 -99 -99 -99 -99 -99 -99 000 000 000 000 000 -99 000 000 000 000 000 000 -99 000 000 000 000 -99 -99 -99 -99 -99
-99 -99 -99 -99 -99 -99 -99 -99 -99 000 000 000 000 000 000 000 000 000 000 000 000 -99 000 000 000 000 -99 000 -99 -99 -99
000 000 -99 -99 -99 -99 -99 -99 -99 000 000 000 000 000 000 000 000 000 000 000 -99 -99 000 000 000 -99 000 000 -99 -99 -99
000 -99 -99 -99 -99 -99 -99 -99 -99 000 000 000 000 000 000 000 000 -99 000 000 -99 000 -99 000 000 -99 000 000 -99 -99 000
000 -99 -99 -99 -99 -99 -99 -99 -99 -99 000 000 000 000 000 000 000 -99 -99 -99 000 000 000 000 000 000 000 -99 -99 -99 000
-99 -99 -99 -99 -99 -99 -99 -99 -99 -99 -99 000 000 000 000 -99 -99 -99 -99 -99 000 000 000 000 -99 000 000 -99 000 -99 -99
-99 -99 -99 -99 -99 -99 -99 -99 -99 -99 -99 -99 -99 000 -99 -99 -99 -99 -99 000 000 000 000 -99 -99 000 000 -99 000 -99 -99
-99 -99 -99 -99 -99 -99 -99 -99 -99 -99 -99 -99 000 000 -99 -99 -99 -99 000 000 000 000 -99 -99 -99 -99 -99 -99 -99 -99 -99
-99 -99 -99 -99 -99 -99 -99 -99 -99 -99 -99 -99 -99 -99 -99 -99 -99 -99 000 000 000 000 -99 -99 -99 000 -99 -99 -99 -99 -99
-99 -99 -99 -99 -99 -99 -99 -99 -99 -99 -99 -99 -99 -99 -99 -99 -99 000 000 000 000 -99 -99 -99 -99 000 -99 -99 -99 -99 -99
-99 -99 -99 -99 -99 -99 -99 -99 -99 -99 -99 -99 -99 -99 -99 -99 -99 -99 000 000 000 -99 -99 -99 -99 -99 -99 -99 -99 -99 -99
-99 -99 -99 -99 -99 -99 -99 -99 -99 -99 -99 -99 -99 -99 -99 -99 -99 -99 000 000 -99 -99 -99 -99 -99 -99 -99 -99 -99 -99 -99
-99 -99 -99 -99 -99 -99 -99 -99 -99 -99 -99 -99 -99 -99 -99 -99 -99 -99 -99 -99 -99 -99 -99 -99 -99 -99 -99 -99 -99 -99 -99
